c Generated map
c Size: 9 * 9, weights in range: 1 to 10, walls: False, with ratio 0.0
c dim 2 of 7
c
p sp 81 144
c graph contains 81 nodes and 144 arcs
c
a 1 10 6
a 10 1 6
a 1 2 8
a 2 1 8
a 2 11 8
a 11 2 8
a 2 3 6
a 3 2 6
a 3 12 7
a 12 3 7
a 3 4 2
a 4 3 2
a 4 13 7
a 13 4 7
a 4 5 5
a 5 4 5
a 5 14 7
a 14 5 7
a 5 6 1
a 6 5 1
a 6 15 8
a 15 6 8
a 6 7 3
a 7 6 3
a 7 16 7
a 16 7 7
a 7 8 3
a 8 7 3
a 8 17 4
a 17 8 4
a 8 9 9
a 9 8 9
a 9 18 7
a 18 9 7
a 10 19 2
a 19 10 2
a 10 11 10
a 11 10 10
a 11 20 7
a 20 11 7
a 11 12 1
a 12 11 1
a 12 21 1
a 21 12 1
a 12 13 8
a 13 12 8
a 13 22 10
a 22 13 10
a 13 14 3
a 14 13 3
a 14 23 4
a 23 14 4
a 14 15 8
a 15 14 8
a 15 24 5
a 24 15 5
a 15 16 2
a 16 15 2
a 16 25 4
a 25 16 4
a 16 17 3
a 17 16 3
a 17 26 2
a 26 17 2
a 17 18 7
a 18 17 7
a 18 27 10
a 27 18 10
a 19 28 6
a 28 19 6
a 19 20 6
a 20 19 6
a 20 29 7
a 29 20 7
a 20 21 10
a 21 20 10
a 21 30 5
a 30 21 5
a 21 22 3
a 22 21 3
a 22 31 1
a 31 22 1
a 22 23 5
a 23 22 5
a 23 32 9
a 32 23 9
a 23 24 7
a 24 23 7
a 24 33 5
a 33 24 5
a 24 25 7
a 25 24 7
a 25 34 7
a 34 25 7
a 25 26 8
a 26 25 8
a 26 35 10
a 35 26 10
a 26 27 3
a 27 26 3
a 27 36 5
a 36 27 5
a 28 37 4
a 37 28 4
a 28 29 1
a 29 28 1
a 29 38 8
a 38 29 8
a 29 30 1
a 30 29 1
a 30 39 5
a 39 30 5
a 30 31 1
a 31 30 1
a 31 40 8
a 40 31 8
a 31 32 6
a 32 31 6
a 32 41 7
a 41 32 7
a 32 33 6
a 33 32 6
a 33 42 8
a 42 33 8
a 33 34 6
a 34 33 6
a 34 43 2
a 43 34 2
a 34 35 1
a 35 34 1
a 35 44 6
a 44 35 6
a 35 36 9
a 36 35 9
a 36 45 7
a 45 36 7
a 37 46 7
a 46 37 7
a 37 38 7
a 38 37 7
a 38 47 7
a 47 38 7
a 38 39 8
a 39 38 8
a 39 48 1
a 48 39 1
a 39 40 2
a 40 39 2
a 40 49 2
a 49 40 2
a 40 41 8
a 41 40 8
a 41 50 8
a 50 41 8
a 41 42 9
a 42 41 9
a 42 51 1
a 51 42 1
a 42 43 2
a 43 42 2
a 43 52 5
a 52 43 5
a 43 44 8
a 44 43 8
a 44 53 1
a 53 44 1
a 44 45 5
a 45 44 5
a 45 54 7
a 54 45 7
a 46 55 3
a 55 46 3
a 46 47 10
a 47 46 10
a 47 56 2
a 56 47 2
a 47 48 1
a 48 47 1
a 48 57 6
a 57 48 6
a 48 49 8
a 49 48 8
a 49 58 1
a 58 49 1
a 49 50 5
a 50 49 5
a 50 59 8
a 59 50 8
a 50 51 8
a 51 50 8
a 51 60 5
a 60 51 5
a 51 52 2
a 52 51 2
a 52 61 4
a 61 52 4
a 52 53 6
a 53 52 6
a 53 62 5
a 62 53 5
a 53 54 7
a 54 53 7
a 54 63 3
a 63 54 3
a 55 64 2
a 64 55 2
a 55 56 4
a 56 55 4
a 56 65 1
a 65 56 1
a 56 57 1
a 57 56 1
a 57 66 9
a 66 57 9
a 57 58 5
a 58 57 5
a 58 67 9
a 67 58 9
a 58 59 9
a 59 58 9
a 59 68 2
a 68 59 2
a 59 60 4
a 60 59 4
a 60 69 1
a 69 60 1
a 60 61 7
a 61 60 7
a 61 70 6
a 70 61 6
a 61 62 10
a 62 61 10
a 62 71 3
a 71 62 3
a 62 63 3
a 63 62 3
a 63 72 5
a 72 63 5
a 64 73 7
a 73 64 7
a 64 65 2
a 65 64 2
a 65 74 1
a 74 65 1
a 65 66 4
a 66 65 4
a 66 75 9
a 75 66 9
a 66 67 6
a 67 66 6
a 67 76 1
a 76 67 1
a 67 68 1
a 68 67 1
a 68 77 6
a 77 68 6
a 68 69 10
a 69 68 10
a 69 78 4
a 78 69 4
a 69 70 6
a 70 69 6
a 70 79 3
a 79 70 3
a 70 71 3
a 71 70 3
a 71 80 4
a 80 71 4
a 71 72 4
a 72 71 4
a 72 81 5
a 81 72 5
a 73 74 1
a 74 73 1
a 74 75 9
a 75 74 9
a 75 76 5
a 76 75 5
a 76 77 10
a 77 76 10
a 77 78 2
a 78 77 2
a 78 79 8
a 79 78 8
a 79 80 1
a 80 79 1
a 80 81 2
a 81 80 2
